
List of user-set options:

                                    Name   Value                used
                           compl_inf_tol = 1                     yes
                         constr_viol_tol = 1                     yes
                            dual_inf_tol = 1000                  yes
                           linear_solver = ma97                  yes
                              ma86_small = 1e-30                  no
                                  ma86_u = 0.0001                 no
                              ma97_order = best                  yes
                              ma97_small = 1e-30                 yes
                            ma97_switch1 = at_start              yes
                            ma97_switch2 = od_hd_reuse           yes
                                  ma97_u = 1e-06                 yes
                               ma97_umax = 0.5                   yes
                                max_iter = 1000                  yes
                    max_refinement_steps = 20                    yes
                    min_refinement_steps = 5                     yes
                                 mu_init = 1e-06                 yes
           mu_superlinear_decrease_power = 1.25                  yes
                   nlp_scaling_min_value = 1e-08                 yes
                        option_file_name = Preset_Case_857_pf.opt  yes
                             output_file = ./tmp/Preset_Case_857_pf.output  yes
                      print_user_options = yes                   yes
        required_infeasibility_reduction = 1                      no
                                     tol = 1e-08                 yes
                   warm_start_bound_frac = 1e-20                 yes
                   warm_start_bound_push = 1e-20                 yes
                   warm_start_init_point = yes                   yes
              warm_start_mult_bound_push = 1e-20                 yes
                warm_start_mult_init_max = 1e+40                 yes
             warm_start_slack_bound_frac = 1e-20                 yes
             warm_start_slack_bound_push = 1e-20                 yes

******************************************************************************
This program contains Ipopt, a library for large-scale nonlinear optimization.
 Ipopt is released as open source code under the Eclipse Public License (EPL).
         For more information visit http://projects.coin-or.org/Ipopt
******************************************************************************

This is Ipopt version 3.12.10, running with linear solver ma97.

Number of nonzeros in equality constraint Jacobian...:   123443
Number of nonzeros in inequality constraint Jacobian.:      213
Number of nonzeros in Lagrangian Hessian.............:    49069

Total number of variables............................:    31591
                     variables with only lower bounds:    12912
                variables with lower and upper bounds:    15130
                     variables with only upper bounds:        0
Total number of equality constraints.................:    31483
Total number of inequality constraints...............:       25
        inequality constraints with only lower bounds:        4
   inequality constraints with lower and upper bounds:        0
        inequality constraints with only upper bounds:       21

iter    objective    inf_pr   inf_du lg(mu)  ||d||  lg(rg) alpha_du alpha_pr  ls
   0 -5.0325016e+00 4.04e-03 1.02e+00  -6.0 0.00e+00    -  0.00e+00 0.00e+00   0
   1 -5.0356500e+00 6.29e+00 5.14e+01  -6.0 2.22e+05    -  1.66e-04 1.78e-03h  1
   2 -5.0358320e+00 6.28e+00 4.65e+01  -6.0 4.73e+03    -  4.98e-02 1.01e-03f  1
   3 -5.0354991e+00 6.28e+00 7.50e+02  -6.0 7.70e+04    -  6.39e-04 1.58e-04h  9
   4 -5.0341561e+00 5.84e+00 1.16e+03  -6.0 4.25e+03    -  7.52e-03 7.01e-02h  2
   5 -5.0372736e+00 5.30e+00 2.41e+02  -6.0 3.05e+03    -  2.59e-02 9.30e-02h  1
   6 -5.0965470e+00 2.31e+01 6.29e+03  -6.0 3.61e+03    -  6.00e-02 3.89e-01f  1
   7 -5.0978922e+00 2.29e+01 5.62e+03  -6.0 1.60e+02  -4.0 1.13e-02 9.11e-03h  1
   8 -5.1035332e+00 2.21e+01 1.15e+03  -6.0 1.58e+02  -4.5 8.34e-02 3.72e-02h  1
   9 -5.2654512e+00 3.95e+01 7.03e+03  -6.0 3.60e+03    -  9.68e-03 4.09e-01h  1
iter    objective    inf_pr   inf_du lg(mu)  ||d||  lg(rg) alpha_du alpha_pr  ls
  10 -5.2900563e+00 3.03e+01 7.58e+03  -6.0 3.73e+01  -5.0 8.54e-01 2.33e-01h  1
  11 -5.3655637e+00 1.75e+01 4.34e+03  -6.0 8.33e+01  -5.4 4.19e-01 4.22e-01h  1
  12 -5.4041427e+00 2.51e-01 1.94e+03  -6.0 5.22e+01  -5.9 4.85e-01 1.00e+00h  1
  13 -5.3990955e+00 1.58e-01 4.52e+03  -6.0 8.00e+01  -6.4 4.44e-01 1.00e+00H  1
  14 -5.4204510e+00 3.15e-01 1.24e+04  -6.0 1.01e+02  -6.9 6.03e-01 1.00e+00h  1
  15 -5.4237522e+00 2.74e-01 1.97e+03  -6.0 2.76e+02  -7.3 2.73e-01 1.61e-01h  1
  16 -5.4652019e+00 3.41e+01 6.06e+04  -6.0 2.56e+03  -7.8 8.26e-02 5.40e-01h  1
  17 -5.4956816e+00 2.82e+01 1.42e+05  -6.0 3.86e+03  -8.3 2.04e-01 4.95e-01h  1
  18 -5.4937115e+00 9.82e+00 1.18e+07  -6.0 6.17e+01  -4.3 9.45e-03 6.52e-01h  1
  19 -5.5125323e+00 9.36e+00 1.14e+07  -6.0 3.35e+01  -4.7 6.56e-01 4.74e-02h  1
iter    objective    inf_pr   inf_du lg(mu)  ||d||  lg(rg) alpha_du alpha_pr  ls
  20 -5.5208837e+00 1.98e-01 3.27e+06  -6.0 1.99e+01  -5.2 5.13e-02 1.00e+00h  1
  21 -5.5230105e+00 3.36e-02 6.61e+03  -6.0 1.54e+01  -5.7 1.00e+00 1.00e+00h  1
  22 -5.5339748e+00 2.76e-01 2.07e+03  -6.0 7.65e+01  -6.2 7.04e-01 6.93e-01h  1
  23 -5.5387383e+00 1.18e-01 3.51e+00  -6.0 5.38e+01  -6.6 1.00e+00 1.00e+00h  1
  24 -5.5507042e+00 2.08e-01 3.58e+02  -6.0 2.04e+02  -7.1 9.79e-01 3.48e-01h  1
  25 -5.5613261e+00 1.47e+00 7.01e+01  -6.0 2.76e+02  -7.6 1.00e+00 7.87e-01h  1
  26 -5.5678832e+00 8.41e-01 4.19e+03  -6.0 5.27e+02  -8.1 1.00e+00 4.28e-01h  1
  27 -5.5718184e+00 8.33e-01 3.49e+03  -6.0 1.24e+03  -8.5 1.16e-01 1.41e-01h  1
  28 -5.5778314e+00 2.61e+00 5.38e+03  -6.0 1.70e+03  -9.0 4.10e-01 1.69e-01h  1
  29 -5.5900657e+00 3.49e+00 9.73e+03  -6.0 6.97e+02  -8.6 1.00e+00 4.77e-01h  1
iter    objective    inf_pr   inf_du lg(mu)  ||d||  lg(rg) alpha_du alpha_pr  ls
  30 -5.5984525e+00 9.93e+00 1.37e+04  -6.0 1.78e+03  -9.1 5.68e-01 3.27e-01h  1
  31 -5.6010967e+00 1.13e+01 3.96e+04  -6.0 3.38e+03  -9.6 6.60e-01 9.69e-02h  1
  32 -5.6214237e+00 3.96e+01 4.74e+03  -6.0 1.46e+03  -9.1 1.00e+00 9.25e-01h  1
  33 -5.6326968e+00 2.80e+01 9.66e+04  -6.0 1.33e+03  -9.6 5.46e-02 4.97e-01h  1
  34 -5.6372440e+00 2.32e+01 7.35e+04  -6.0 3.44e+03 -10.1 1.99e-01 1.90e-01h  1
  35 -5.6531606e+00 8.08e+01 3.13e+05  -6.0 2.65e+03  -9.7 2.62e-01 7.12e-01h  1
  36 -5.6554541e+00 7.75e+01 4.17e+05  -6.0 7.02e+03    -  2.75e-04 6.48e-02h  1
  37 -5.6565091e+00 7.51e+01 3.35e+05  -6.0 2.51e+03    -  6.09e-02 3.08e-02h  1
  38 -5.6741147e+00 3.77e+01 1.31e+06  -6.0 2.16e+03    -  2.58e-02 5.14e-01h  1
  39r-5.6741147e+00 3.77e+01 1.00e+03   1.5 0.00e+00    -  0.00e+00 2.42e-07R  2
iter    objective    inf_pr   inf_du lg(mu)  ||d||  lg(rg) alpha_du alpha_pr  ls
  40r-5.6873521e+00 3.77e+01 1.06e+03   1.5 1.68e+05    -  2.05e-07 6.10e-08f  1
  41 -5.6872127e+00 3.74e+01 3.68e+03  -6.0 3.39e+01    -  2.29e-06 8.45e-03h  1
  42 -5.6867099e+00 3.63e+01 3.57e+03  -6.0 3.37e+01    -  1.06e-02 3.00e-02h  1
  43 -5.6854981e+00 3.36e+01 3.31e+03  -6.0 3.24e+01    -  9.22e-02 7.37e-02h  1
  44 -5.6807691e+00 2.33e+01 2.29e+03  -6.0 2.96e+01    -  7.93e-02 3.06e-01h  1
  45 -5.6776709e+00 1.75e+01 1.72e+03  -6.0 1.98e+01    -  4.25e-01 2.47e-01h  1
  46 -5.6680903e+00 2.32e-02 1.09e+02  -6.0 1.53e+01    -  3.66e-01 1.00e+00h  1
  47 -5.6690360e+00 4.01e-05 5.76e+01  -6.0 1.26e+00    -  6.28e-01 1.00e+00h  1
  48 -5.6708323e+00 1.49e-04 3.91e+00  -6.0 2.15e+00    -  9.33e-01 1.00e+00h  1
  49 -5.6712630e+00 2.96e-04 1.59e+00  -6.0 1.43e+01    -  6.63e-01 1.61e-01h  1
iter    objective    inf_pr   inf_du lg(mu)  ||d||  lg(rg) alpha_du alpha_pr  ls
  50 -5.6722620e+00 3.65e-03 3.30e+00  -6.0 3.55e+01    -  8.95e-01 2.90e-01f  1
  51 -5.6859748e+00 8.04e-01 7.80e+00  -6.0 1.58e+02    -  9.52e-01 1.00e+00f  1
  52 -5.6869910e+00 7.06e-01 8.24e+00  -6.0 2.69e+02    -  5.17e-01 7.01e-01h  1
  53 -5.6843107e+00 2.72e-01 3.99e+03  -6.0 4.72e+02    -  8.86e-01 1.00e+00H  1
  54 -5.6844217e+00 2.58e-01 3.43e+03  -6.0 8.13e+02    -  9.03e-01 1.41e-01h  3
  55 -5.6845070e+00 7.22e-01 2.90e+03  -6.0 1.18e+03    -  6.37e-01 1.55e-01h  3
  56 -5.6845120e+00 7.18e-01 2.88e+03  -6.0 5.75e+03  -9.2 1.98e-01 4.96e-03h  2
  57 -5.6845805e+00 1.36e+00 2.37e+03  -6.0 1.13e+03    -  9.54e-01 1.77e-01h  3
  58 -5.6846143e+00 1.30e+00 2.21e+03  -6.0 5.56e+02    -  1.00e+00 6.77e-02h  2
  59 -5.6846987e+00 9.81e-01 1.60e+03  -6.0 6.00e+02    -  1.00e+00 2.76e-01H  1
iter    objective    inf_pr   inf_du lg(mu)  ||d||  lg(rg) alpha_du alpha_pr  ls
  60 -5.6847367e+00 9.32e-01 1.52e+03  -6.0 1.71e+03    -  1.00e+00 4.98e-02h  2
  61 -5.6848677e+00 6.23e-01 8.82e+02  -6.0 2.41e+02    -  1.00e+00 4.82e-01H  1
  62 -5.6850268e+00 5.54e+00 5.20e+02  -6.0 1.31e+03    -  1.00e+00 4.10e-01h  1
  63 -5.6850151e+00 5.13e+00 4.60e+02  -6.0 9.78e+02    -  1.17e-02 1.16e-01h  1
  64 -5.6850452e+00 7.22e+00 2.99e+01  -6.0 6.28e+02  -7.9 2.64e-02 1.00e+00h  1
  65 -5.6850108e+00 1.26e-01 1.81e+01  -6.0 8.36e+01    -  3.25e-01 1.00e+00h  1
  66 -5.6850092e+00 3.28e-01 2.55e-02  -6.0 4.15e+01  -8.4 1.00e+00 1.00e+00h  1
  67 -5.6850121e+00 1.17e-01 3.28e-02  -6.0 6.38e+01  -8.9 1.00e+00 1.00e+00h  1
  68 -5.6850170e+00 5.01e-01 2.16e-01  -6.0 1.67e+02  -9.3 1.00e+00 1.00e+00h  1
  69 -5.6850183e+00 2.23e+00 9.07e-01  -6.0 3.54e+02  -9.8 1.00e+00 1.00e+00h  1
iter    objective    inf_pr   inf_du lg(mu)  ||d||  lg(rg) alpha_du alpha_pr  ls
  70 -5.6850434e+00 6.23e+00 1.15e+01  -6.0 5.76e+02 -10.3 2.28e-01 1.00e+00h  1
  71 -5.6849620e+00 3.51e+01 2.68e+01  -6.0 1.34e+03    -  5.47e-01 9.99e-01h  1
  72 -5.6850504e+00 4.31e+01 4.37e+01  -6.0 4.07e+04  -9.9 2.87e-02 1.70e-02h  2
  73 -5.6850036e+00 2.46e+01 1.46e+01  -6.0 5.22e+02    -  9.47e-01 4.50e-01h  1
  74 -5.6849739e+00 1.98e+01 1.18e+01  -6.0 8.33e+02    -  1.00e+00 2.20e-01h  2
  75 -5.6849589e+00 1.82e+01 2.75e+01  -6.0 1.16e+03    -  9.08e-01 8.92e-02h  2
  76 -5.6849426e+00 1.68e+01 4.44e+01  -6.0 1.33e+03    -  1.00e+00 8.97e-02h  3
  77 -5.6849349e+00 1.63e+01 6.45e+01  -6.0 1.53e+03  -9.4 8.41e-01 3.13e-02h  5
  78 -5.6849347e+00 1.63e+01 6.71e+01  -6.0 1.61e+03  -9.9 1.01e-01 1.07e-03h 10
  79 -5.6848642e+00 1.53e+01 6.59e+01  -6.0 1.61e+03  -9.5 1.00e+00 2.74e-01h  2
iter    objective    inf_pr   inf_du lg(mu)  ||d||  lg(rg) alpha_du alpha_pr  ls
  80 -5.6848185e+00 1.48e+01 9.85e+01  -6.0 2.31e+03    -  6.05e-01 1.10e-01h  3
  81 -5.6847628e+00 1.46e+01 1.99e+02  -6.0 2.68e+03    -  1.00e+00 1.05e-01h  3
  82 -5.6847173e+00 1.44e+01 2.73e+02  -6.0 3.08e+03    -  4.90e-01 6.69e-02h  4
  83 -5.6846683e+00 1.42e+01 5.60e+02  -6.0 3.35e+03    -  1.00e+00 6.16e-02h  4
  84 -5.6842452e+00 5.48e+01 2.44e+02  -6.0 3.61e+03    -  4.47e-01 4.62e-01w  1
  85 -5.6839815e+00 5.08e+01 3.61e+03  -6.0 3.36e+03    -  1.12e-02 2.03e-01w  1
  86 -5.6838858e+00 4.85e+01 7.40e+03  -6.0 3.79e+03    -  2.76e-03 5.85e-02w  1
  87 -5.6846154e+00 1.41e+01 7.75e+02  -6.0 1.13e+03    -  4.47e-01 5.77e-02h  3
  88 -5.6845588e+00 1.40e+01 7.12e+02  -6.0 3.62e+03    -  3.33e-02 5.78e-02h  4
  89 -5.6850522e+00 6.38e+01 8.25e+02  -6.0 5.84e+03    -  2.05e-01 3.10e-01h  1
iter    objective    inf_pr   inf_du lg(mu)  ||d||  lg(rg) alpha_du alpha_pr  ls
  90 -5.6850289e+00 6.36e+01 8.03e+02  -6.0 1.51e+04    -  1.14e-05 8.36e-03h  3
  91 -5.6849307e+00 3.90e-02 2.49e+02  -6.0 1.10e+02  -9.1 3.69e-01 1.00e+00h  1
  92 -5.6849089e+00 2.66e-02 3.61e+01  -6.0 3.33e+02    -  6.85e-01 1.00e+00H  1
  93 -5.6849355e+00 9.67e-03 4.49e+01  -6.0 2.45e+02    -  1.00e+00 1.00e+00H  1
  94 -5.6849353e+00 1.98e-02 4.12e+01  -6.0 9.42e+01    -  8.72e-01 8.25e-02h  4
  95 -5.6849359e+00 1.82e-02 3.60e+01  -6.0 7.13e+01    -  1.00e+00 1.25e-01h  4
  96 -5.6849395e+00 3.43e-03 1.43e-02  -6.0 4.49e+01  -9.5 1.00e+00 1.00e+00H  1
  97 -5.6849426e+00 1.32e-04 4.10e-02  -6.0 3.13e+01  -9.1 1.00e+00 1.00e+00H  1
  98 -5.6849484e+00 1.10e-01 3.63e-02  -6.0 7.07e+01  -9.6 1.00e+00 1.00e+00h  1
  99 -5.6849491e+00 2.14e-01 8.66e+00  -6.0 3.81e+02    -  1.00e+00 1.67e-01h  2
iter    objective    inf_pr   inf_du lg(mu)  ||d||  lg(rg) alpha_du alpha_pr  ls
 100 -5.6849654e+00 1.04e+00 3.90e-01  -6.0 2.36e+02    -  1.00e+00 1.00e+00h  1
 101 -5.6849717e+00 1.31e+00 2.47e-01  -6.0 3.57e+02 -10.1 2.01e-01 2.50e-01h  3
 102 -5.6849728e+00 1.40e-01 1.53e-02  -6.0 4.09e+01  -9.6 1.00e+00 1.00e+00h  1
 103 -5.6849707e+00 7.39e-02 9.42e-03  -6.0 3.53e+01    -  1.00e+00 1.00e+00h  1
 104 -5.6849701e+00 1.02e-02 7.99e-04  -6.0 1.03e+01    -  1.00e+00 1.00e+00h  1
 105 -5.6849701e+00 1.12e-05 7.83e-07  -6.0 3.23e-01    -  1.00e+00 1.00e+00h  1
 106 -5.6849701e+00 3.20e-10 2.10e-11  -6.0 1.43e-03    -  1.00e+00 1.00e+00h  1
 107 -5.6851289e+00 3.63e+00 4.37e+01  -7.5 8.91e+02    -  3.73e-01 5.23e-01f  1
 108 -5.6851984e+00 5.89e+00 1.16e+02  -7.5 6.72e+02    -  2.32e-01 8.26e-01h  1
 109 -5.6851852e+00 2.28e+00 7.90e+00  -7.5 1.58e+02    -  8.80e-01 6.32e-01h  1
iter    objective    inf_pr   inf_du lg(mu)  ||d||  lg(rg) alpha_du alpha_pr  ls
 110 -5.6851734e+00 9.16e-02 3.49e-02  -7.5 6.59e+01    -  1.00e+00 1.00e+00h  1
 111 -5.6851728e+00 9.89e-06 4.57e-06  -7.5 7.32e-01    -  1.00e+00 1.00e+00h  1
 112 -5.6851728e+00 2.95e-10 3.92e-12  -7.5 1.67e-04    -  1.00e+00 1.00e+00h  1
 113 -5.6851746e+00 1.66e-02 8.38e-01  -9.0 3.46e+01    -  9.26e-01 8.35e-01h  1
 114 -5.6851748e+00 7.21e-04 8.06e-04  -9.0 6.02e+00    -  1.00e+00 1.00e+00h  1
 115 -5.6851748e+00 8.19e-10 4.90e-09  -9.0 7.11e-03    -  1.00e+00 1.00e+00h  1

Number of Iterations....: 115

                                   (scaled)                 (unscaled)
Objective...............:  -4.4415428039657074e+00   -5.6851747890761057e+00
Dual infeasibility......:   4.8970756124801256e-09    6.2682567839745612e-09
Constraint violation....:   6.7269274307645674e-10    8.1854523159563541e-10
Complementarity.........:   1.4769627596059557e-09    1.8905123322956232e-09
Overall NLP error.......:   4.8970756124801256e-09    6.2682567839745612e-09


Number of objective function evaluations             = 240
Number of objective gradient evaluations             = 116
Number of equality constraint evaluations            = 240
Number of inequality constraint evaluations          = 240
Number of equality constraint Jacobian evaluations   = 117
Number of inequality constraint Jacobian evaluations = 117
Number of Lagrangian Hessian evaluations             = 115
Total CPU secs in IPOPT (w/o function evaluations)   =    271.203
Total CPU secs in NLP function evaluations           =      5.075

EXIT: Optimal Solution Found.
